
<<< setup


<<< generate

Version identifier: 12.10.0.0 | 2019-11-26 | 843d4de2ae
CPXPARAM_TimeLimit                               1200
Tried aggregator 2 times.
MIP Presolve eliminated 5191728 rows and 2958936 columns.
MIP Presolve modified 402000 coefficients.
Aggregator did 959 substitutions.
Reduced MIP has 57963 rows, 59155 columns, and 365208 nonzeros.
Reduced MIP has 59105 binaries, 0 generals, 0 SOSs, and 0 indicators.
Presolve time = 5.80 sec. (3718.10 ticks)
Found incumbent of value 0.000000 after 8.36 sec. (4707.80 ticks)
Probing time = 0.22 sec. (23.97 ticks)
Tried aggregator 1 time.
Detecting symmetries...
Reduced MIP has 57963 rows, 59155 columns, and 365208 nonzeros.
Reduced MIP has 59105 binaries, 0 generals, 0 SOSs, and 0 indicators.
Presolve time = 0.53 sec. (282.28 ticks)
Probing time = 0.16 sec. (20.98 ticks)
Clique table members: 199728.
MIP emphasis: balance optimality and feasibility.
MIP search method: dynamic search.
Parallel mode: deterministic, using up to 4 threads.
Root relaxation solution time = 3.80 sec. (1992.35 ticks)

        Nodes                                         Cuts/
   Node  Left     Objective  IInf  Best Integer    Best Bound    ItCnt     Gap

*     0+    0                            0.0000   117353.0000              --- 
      0     0   117353.0000  1001        0.0000   117353.0000     8029     --- 
      0     0   117353.0000  1001        0.0000    Cuts: 1146    13698     --- 
      0     0   117353.0000  1001        0.0000    Cuts: 9946    25170     --- 
      0     0   117353.0000  1001        0.0000     Cuts: 136    34160     --- 
      0     0   117353.0000  1001        0.0000    Cuts: 7775    47774     --- 
Heuristic still looking.
      0     2   117353.0000   794        0.0000   117353.0000    66631     --- 
Elapsed time = 464.83 sec. (275233.84 ticks, tree = 0.02 MB, solutions = 1)
      1     3   117353.0000   859        0.0000   117353.0000    80634     --- 
      2     4   117353.0000   848        0.0000   117353.0000    94796     --- 
      3     4   117353.0000   872        0.0000   117353.0000    92932     --- 
      4     4   117353.0000   909        0.0000   117353.0000   107629     --- 
      6     7   117353.0000  1084        0.0000   117353.0000   126051     --- 
      7     8   117353.0000  1059        0.0000   117353.0000   127302     --- 
      8     5   117353.0000   861        0.0000   117353.0000   104498     --- 
      9     5   117353.0000   849        0.0000   117353.0000   121869     --- 
     10     9   117353.0000   854        0.0000   117353.0000   151472     --- 
     12     9   117353.0000   972        0.0000   117353.0000   139404     --- 
Elapsed time = 523.76 sec. (301264.72 ticks, tree = 0.06 MB, solutions = 1)
     16    10   117353.0000   975        0.0000   117353.0000   129062     --- 
     18    12   117353.0000  1001        0.0000   117353.0000   129910     --- 
     22    13   117353.0000  1062        0.0000   117353.0000   131313     --- 
     30    19   117353.0000  1049        0.0000   117353.0000   165288     --- 
     37    27   117353.0000   882        0.0000   117353.0000   197707     --- 
     38    28   117353.0000   988        0.0000   117353.0000   202109     --- 
     45    31   117353.0000   920        0.0000   117353.0000   212468     --- 
     51    34   117353.0000   900        0.0000   117353.0000   218251     --- 
     53    30   117353.0000   824        0.0000   117353.0000   213514     --- 
     58    41   117353.0000   837        0.0000   117353.0000   241534     --- 
Elapsed time = 548.17 sec. (313438.63 ticks, tree = 1.05 MB, solutions = 1)
     66    45   117353.0000   929        0.0000   117353.0000   248393     --- 
     73    33   117353.0000   842        0.0000   117353.0000   223566     --- 
     82    58   117353.0000   898        0.0000   117353.0000   253662     --- 
     85    55   117353.0000   866        0.0000   117353.0000   262646     --- 
     88    71   117353.0000   872        0.0000   117353.0000   286199     --- 
     91    54   117353.0000   819        0.0000   117353.0000   271715     --- 
     93    55   117353.0000   980        0.0000   117353.0000   277868     --- 
    101    79   117353.0000   908        0.0000   117353.0000   298473     --- 
    108    78   117353.0000   835        0.0000   117353.0000   315822     --- 
    113    87   117353.0000   887        0.0000   117353.0000   322172     --- 
Elapsed time = 577.84 sec. (325430.01 ticks, tree = 2.00 MB, solutions = 1)
    123    89   117353.0000  1013        0.0000   117353.0000   325089     --- 
    131    93   117353.0000  1057        0.0000   117353.0000   330778     --- 
    137    97   117353.0000  1048        0.0000   117353.0000   337135     --- 
    144    97   117353.0000   815        0.0000   117353.0000   335498     --- 
    152   104   117353.0000   997        0.0000   117353.0000   347842     --- 
    155   117   117353.0000   813        0.0000   117353.0000   372683     --- 
    160   135   117353.0000   965        0.0000   117353.0000   407615     --- 
    165   145   117353.0000   968        0.0000   117353.0000   444844     --- 
    168   118   117353.0000   778        0.0000   117353.0000   384981     --- 
    173   146   117353.0000   769        0.0000   117353.0000   450986     --- 
Elapsed time = 608.94 sec. (337744.63 ticks, tree = 3.59 MB, solutions = 1)
    179   151   117353.0000   962        0.0000   117353.0000   461075     --- 
    185   153   117353.0000   978        0.0000   117353.0000   465216     --- 
    193   170   117353.0000   918        0.0000   117353.0000   513241     --- 
    195    60   117353.0000   903        0.0000   117353.0000   255612     --- 
    200   181   117353.0000   926        0.0000   117353.0000   518894     --- 
    207   184   117353.0000   888        0.0000   117353.0000   519747     --- 
    212   172   117353.0000  1035        0.0000   117353.0000   518839     --- 
    218   174   117353.0000  1063        0.0000   117353.0000   523186     --- 
    227   187   117353.0000   881        0.0000   117353.0000   524574     --- 
    236   201   117353.0000   547        0.0000   117353.0000   551796     --- 
Elapsed time = 635.23 sec. (349162.99 ticks, tree = 4.90 MB, solutions = 1)
    245   217   117353.0000   533        0.0000   117353.0000   578377     --- 
    254   220   117353.0000   534        0.0000   117353.0000   582686     --- 
    264   205   117353.0000   896        0.0000   117353.0000   565622     --- 
    270   233   117353.0000   805        0.0000   117353.0000   595732     --- 
    278   227   117353.0000   609        0.0000   117353.0000   595898     --- 
    287   236   117353.0000   722        0.0000   117353.0000   603703     --- 
    294   240   117353.0000  1018        0.0000   117353.0000   622020     --- 
    305   269   117353.0000   737        0.0000   117353.0000   666334     --- 
    314   253    infeasible              0.0000   117353.0000   642722     --- 
    323   277   117353.0000   683        0.0000   117353.0000   674375     --- 
Elapsed time = 659.69 sec. (360919.54 ticks, tree = 6.87 MB, solutions = 1)
    330   278   117353.0000  1007        0.0000   117353.0000   698275     --- 
    339   277   117353.0000   536        0.0000   117353.0000   699367     --- 
    343   279   117353.0000   521        0.0000   117353.0000   703420     --- 
    353   280   117353.0000   506        0.0000   117353.0000   706969     --- 
    363   284   117353.0000   952        0.0000   117353.0000   725009     --- 
    376   284    infeasible              0.0000   117353.0000   740125     --- 
    381   308   117353.0000   456        0.0000   117353.0000   784486     --- 
    389   284    infeasible              0.0000   117353.0000   745659     --- 
    397   288   117353.0000   412        0.0000   117353.0000   748141     --- 
    404   288    infeasible              0.0000   117353.0000   750457     --- 
Elapsed time = 683.26 sec. (372681.49 ticks, tree = 7.11 MB, solutions = 1)
    409   289   117353.0000   399        0.0000   117353.0000   752577     --- 
    412   307    infeasible              0.0000   117353.0000   797309     --- 
    420   288    infeasible              0.0000   117353.0000   757448     --- 
    423   310   117353.0000   404        0.0000   117353.0000   801967     --- 
    428   308    infeasible              0.0000   117353.0000   803826     --- 
    432   313   117353.0000   547        0.0000   117353.0000   829024     --- 
    438   334   117353.0000   626        0.0000   117353.0000   874443     --- 
    441   315    infeasible              0.0000   117353.0000   835454     --- 
    453   333   117353.0000   759        0.0000   117353.0000   897082     --- 
    463   310    infeasible              0.0000   117353.0000   811288     --- 
Elapsed time = 706.61 sec. (383748.54 ticks, tree = 7.63 MB, solutions = 1)
    475   308   117353.0000   556        0.0000   117353.0000   813728     --- 
    483   309   117353.0000   495        0.0000   117353.0000   817453     --- 
    488   349   117353.0000   621        0.0000   117353.0000   901131     --- 
    496   341   117353.0000   498        0.0000   117353.0000   948165     --- 
    498   340    infeasible              0.0000   117353.0000   948900     --- 
    502   341   117353.0000   505        0.0000   117353.0000   922429     --- 
    504   341   117353.0000   388        0.0000   117353.0000   952359     --- 
    509   342    infeasible              0.0000   117353.0000   924439     --- 
    515   340    infeasible              0.0000   117353.0000   954425     --- 
    527   341   117353.0000   358        0.0000   117353.0000   955100     --- 
Elapsed time = 736.86 sec. (394493.08 ticks, tree = 8.32 MB, solutions = 1)
    535   345    infeasible              0.0000   117353.0000   928855     --- 
    540   346   117353.0000   523        0.0000   117353.0000   930120     --- 
    546   339   117353.0000   539        0.0000   117353.0000   959563     --- 
    549   340   117353.0000   602        0.0000   117353.0000   963034     --- 
    557   369   117353.0000   612        0.0000   117353.0000  1010055     --- 
    565   345   117353.0000   637        0.0000   117353.0000   965987     --- 
    572   347   117353.0000   687        0.0000   117353.0000   967716     --- 
    577   377   117353.0000   664        0.0000   117353.0000  1033430     --- 
    582   349   117353.0000   722        0.0000   117353.0000   970165     --- 
    604   393   117353.0000   551        0.0000   117353.0000  1063364     --- 
Elapsed time = 772.01 sec. (409157.13 ticks, tree = 11.14 MB, solutions = 1)
    626   394   117353.0000   475        0.0000   117353.0000  1067521     --- 
    653   401    infeasible              0.0000   117353.0000  1082404     --- 
    679   404    infeasible              0.0000   117353.0000  1086770     --- 
    709   407   117353.0000   545        0.0000   117353.0000  1104345     --- 
    741   430   117353.0000   672        0.0000   117353.0000  1148245     --- 
    788   431   117353.0000   588        0.0000   117353.0000  1152276     --- 
    829   437   117353.0000   667        0.0000   117353.0000  1185297     --- 
*   873+  438                         4022.0000   117353.0000              --- 
    873   440   117353.0000   605     4022.0000   117353.0000  1206880     --- 
    925   441    infeasible           4022.0000   117353.0000  1225508     --- 
    970   438   117353.0000   514     4022.0000   117353.0000  1222274     --- 
Elapsed time = 876.64 sec. (450309.81 ticks, tree = 16.07 MB, solutions = 2)
   1002   437    infeasible           4022.0000   117353.0000  1237838     --- 
   1027   438   117353.0000   469     4022.0000   117353.0000  1240351     --- 
   1041   438   117353.0000   482     4022.0000   117353.0000  1259281     --- 
   1045   436    infeasible           4022.0000   117353.0000  1259754     --- 
   1049   435   117353.0000   521     4022.0000   117353.0000  1264643     --- 
   1054   435   117353.0000   564     4022.0000   117353.0000  1269148     --- 
   1059   429    infeasible           4022.0000   117353.0000  1279002     --- 
   1064   428    infeasible           4022.0000   117353.0000  1279476     --- 
   1068   434   117353.0000   642     4022.0000   117353.0000  1293760     --- 
   1092   433   117353.0000   428     4022.0000   117353.0000  1297342     --- 
Elapsed time = 1046.50 sec. (492939.66 ticks, tree = 17.12 MB, solutions = 2)
   1132   437   117353.0000   516     4022.0000   117353.0000  1303742     --- 
   1198   437    infeasible           4022.0000   117353.0000  1306387     --- 
   1265   437    infeasible           4022.0000   117353.0000  1309115     --- 
Starting limited solution polishing.
   1321   472    infeasible           4022.0000   117353.0000  1328915     --- 
   1354   490   117353.0000   621     4022.0000   117353.0000  1333836     --- 
   1426   489   117353.0000   527     4022.0000   117353.0000  1338642     --- 
   1463   489   117353.0000   493     4022.0000   117353.0000  1340941     --- 
   1504   505    infeasible           4022.0000   117353.0000  1360499     --- 
   1556   490   117353.0000   521     4022.0000   117353.0000  1356690     --- 
   1595   505   117353.0000   500     4022.0000   117353.0000  1366834     --- 
Elapsed time = 1149.92 sec. (532235.55 ticks, tree = 22.69 MB, solutions = 2)
   1663   490   117353.0000   578     4022.0000   117353.0000  1380649     --- 
   1695   479    infeasible           4022.0000   117353.0000  1393702     --- 
   1737   484   117353.0000   516     4022.0000   117353.0000  1394966     --- 
   1780   486    infeasible           4022.0000   117353.0000  1397876     --- 

Clique cuts applied:  14
Implied bound cuts applied:  744
Flow cuts applied:  88
Mixed integer rounding cuts applied:  579

Root node processing (before b&c):
  Real time             =  432.86 sec. (251230.22 ticks)
Parallel b&c, 4 threads:
  Real time             =  767.73 sec. (300094.93 ticks)
  Sync time (average)   =  124.84 sec.
  Wait time (average)   =    0.00 sec.
                          ------------
Total (root+branch&cut) = 1200.59 sec. (551325.15 ticks)

<<< solve


OBJECTIVE: 4022

<<< post process


<<< done

